TYPE : Vertex Cover
DIMENSION: 33
EDGE_DATA_SECTION:
0 3
0 9
0 13
0 18
0 19
0 25
0 28
1 3
1 5
1 7
1 9
1 14
1 15
1 16
1 17
1 18
1 19
1 26
2 9
2 14
2 15
2 16
2 17
2 21
2 23
3 5
3 9
3 10
3 11
3 13
3 19
3 23
3 24
3 29
3 32
4 5
4 7
4 16
4 18
4 24
4 26
4 28
4 29
4 32
5 6
5 14
5 17
5 19
5 21
5 22
5 23
5 25
5 26
6 11
6 12
6 20
6 23
7 10
7 12
7 19
7 21
8 10
8 16
8 17
8 26
8 30
9 14
9 17
9 19
9 20
9 21
9 24
9 25
9 26
9 27
9 31
10 13
10 14
10 17
10 18
10 24
10 31
10 32
11 17
11 18
11 23
11 32
12 13
12 14
12 15
12 16
12 17
12 20
12 22
12 28
12 29
12 30
13 22
13 28
13 29
13 31
14 19
14 21
14 23
14 31
15 16
15 18
15 20
15 21
15 23
15 25
15 26
16 18
16 19
16 29
17 20
17 23
17 24
17 26
17 30
17 32
18 19
18 20
18 22
18 23
18 24
18 28
18 30
19 20
19 22
19 23
19 24
19 25
20 22
20 25
20 27
20 28
20 29
20 31
21 25
21 26
21 27
21 28
21 32
22 24
22 25
22 29
22 30
22 31
23 28
23 29
23 32
24 28
24 32
25 29
26 27
26 29
27 32
28 30
-1
VERTEX_DEGREE:
7.0 11.0 7.0 12.0 9.0 12.0 5.0 6.0 5.0 14.0 10.0 6.0 12.0 8.0 10.0 10.0 9.0 14.0 14.0 14.0 13.0 11.0 11.0 13.0 10.0 9.0 10.0 5.0 10.0 10.0 6.0 6.0 9.0
VERTEX_COVER:
1 3 4 6 8 9 10 12 13 14 15 16 17 18 19 20 21 22 23 25 26 28 32
EOF
